
Gurobi 9.5.1 (linux64, gurobi_cl) logging started Fri Jul 22 20:31:41 2022

Set parameter LogFile to value "gurobi.log"
Restricted license - for non-production use only - expires 2023-10-25

Gurobi 9.5.1 (linux64, gurobi_cl) logging started Fri Jul 22 20:32:04 2022

Set parameter LogFile to value "gurobi.log"
Restricted license - for non-production use only - expires 2023-10-25
